\ This file has been generated by DOcplex
\ ENCODING=ISO-8859-1
\Problem name: docplex_model1

Minimize
 obj:
Subject To
 c_0_0: - 0.878594815731 x_0 + 0.503934204578 x_1 - 0.716025292873 x_2
        - 0.968655407429 x_3 - o_0 = -0.624577283859
 c_0_1: - 0.228042528033 x_0 - 0.450914055109 x_1 + 0.941682517529 x_2
        - 0.017447555438 x_3 - o_1 = -0.031815897673
 c_0_2: 0.412361323833 x_0 - 0.386155605316 x_1 + 1.339374065399 x_2
        + 0.571877360344 x_3 - o_2 = 0.701081991196

Bounds
       x_0 <= 1
       x_1 <= 1
       x_2 <= 1
       x_3 <= 1
 -1.938698232174 <= o_0 <= 1.128511488438
 -0.664588240907 <= o_1 <= 0.973498415202
 -1.087237596512 <= o_2 <= 1.622530758381
End
